peakDumbCharging = 18500; 
Machine = anon_enum(16); 
machineSpeed = [3700,3700,3700,3700,3700,3700,3700,3700,3700,3700,3700,3700,3700,3700,3700,3700]; 
machineLoad = [3700,3700,3700,3700,3700,3700,3700,3700,3700,3700,3700,3700,3700,3700,3700,3700]; 
Car = anon_enum(21); 
demandCar = [1400,14240,5960,3440,4920,3040,880,6680,3680,8240,6080,5160,13320,2080,8440,5200,4040,26200,61320,8520,13560]; 
arrivalCar = [77,68,67,66,65,60,60,58,57,57,57,53,46,44,36,35,34,33,28,27,23]; 
departureCar = [79,74,70,68,68,62,61,62,61,60,61,55,55,47,42,39,38,57,53,31,60]; 
